decision_x1=[0,2];
decision_x2=[0,2];
decision_x3=[0,2];
decision_x4=[0,2];
decision_x5=[0,2];
random_y1=[0,2];
constraint_x2_x1=[
0,1,4.6|
0,2,6.9|
1,0,8|
1,2,2.2|
2,0,2|
2,1,0.28|
];
constraint_x3_x1=[
0,1,1.4|
0,2,4.8|
1,0,3.7|
1,2,0.81|
2,0,8.2|
2,1,1.1|
];
constraint_x4_x2=[
0,1,3|
0,2,2.5|
1,0,4.4|
1,2,3.9|
2,0,9.2|
2,1,4.8|
];
constraint_x4_x3=[
0,1,0.024|
0,2,5.8|
1,0,1.1|
1,2,9.4|
2,0,5.3|
2,1,3.4|
];
constraint_x5_x4=[
0,1,8.4|
0,2,2.5|
1,0,3.9|
1,2,2.1|
2,0,0.82|
2,1,7.5|
];
constraint_x1_y1=[
0,0,5|
0,1,8.2|
0,2,1.8|
1,0,9.3|
1,1,7|
1,2,5.6|
2,0,8.9|
2,1,9.3|
2,2,3.1|
];
initial_distribution_y1=[0.12,0.25,0.64];
transition_y1=[
0.2,0.38,0.42|
0.39,0.22,0.39|
0.56,0.37,0.07|
];
